20	13000	3000	1200
2711	868	635
3326	618	733
3206	691	707
4905	803	577
3880	856	527
4122	709	753
3786	512	529
2395	629	744
2004	718	740
2652	565	570
4427	792	739
2217	631	687
4513	751	686
3764	641	716
2461	836	543
3932	861	741
3678	727	734
2396	699	541
3789	729	725
4142	855	643
